MoS2 (bulk, 2 f.u.)                     
   1.00000000000000     
     3.1792678194129311   -0.0000000000000001    0.0000000000000000
    -1.5896339097064656    2.7533260026656770    0.0000000000000000
     0.0000000000000000    0.0000000000000000   13.7452827299202305
   Mo   S 
     2     4
Direct
  0.6666669999999968  0.3333330000000032  0.2500000000000000
  0.3333330000000032  0.6666669999999968  0.7500000000000000
  0.3333330000000032  0.6666669999999968  0.1360842642615410
  0.6666669999999968  0.3333330000000032  0.6360842642615410
  0.3333330000000032  0.6666669999999968  0.3639157357384590
  0.6666669999999968  0.3333330000000032  0.8639157357384590
 
  0.00000000E+00  0.00000000E+00  0.00000000E+00
  0.00000000E+00  0.00000000E+00  0.00000000E+00
  0.00000000E+00  0.00000000E+00  0.00000000E+00
  0.00000000E+00  0.00000000E+00  0.00000000E+00
  0.00000000E+00  0.00000000E+00  0.00000000E+00
  0.00000000E+00  0.00000000E+00  0.00000000E+00
