SYSTEM = 2H-MoS2
KPAR   = 8

MAXMEM = 8000

ALGO = GW0
LSPECTRAL = .TRUE.
NOMEGA = 50

NBANDS = 128
NEDOS  = 3000

#NELM = 4 # GW0 option

#ENCUT  = 400
ISMEAR = 0
SIGMA  = 0.05
EDIFF  = 1e-4

LVTOT  = .TRUE.

LWANNIER90 = .TRUE.
