Begin Projections
  Random
End Projections

guiding_centres = .true.

num_iter = 400

 num_wann =    65  ! set to NBANDS by VASP

begin unit_cell_cart
     1.5926538    -2.7585574     0.0000000
     1.5926538     2.7585574     0.0000000
     0.0000000     0.0000000    13.9810315
end unit_cell_cart

begin atoms_cart
Mo       1.5926538     0.9195191     3.4952579
Mo       1.5926538    -0.9195191    10.4857736
S        1.5926538     0.9195191     8.9213872
S        1.5926538    -0.9195191     5.0596442
S        1.5926538    -0.9195191     1.9308714
S        1.5926538     0.9195191    12.0501605
end atoms_cart

mp_grid =    12    12     1

begin kpoints
      0.000000000000      0.000000000000      0.000000000000
      0.083333333333     -0.000000000000      0.000000000000
      0.166666666667     -0.000000000000      0.000000000000
      0.250000000000     -0.000000000000      0.000000000000
      0.333333333333     -0.000000000000      0.000000000000
      0.416666666667     -0.000000000000      0.000000000000
      0.500000000000     -0.000000000000      0.000000000000
      0.083333333333      0.083333333333      0.000000000000
      0.166666666667      0.083333333333      0.000000000000
      0.250000000000      0.083333333333      0.000000000000
      0.333333333333      0.083333333333      0.000000000000
      0.416666666667      0.083333333333      0.000000000000
      0.166666666667      0.166666666667      0.000000000000
      0.250000000000      0.166666666667      0.000000000000
      0.333333333333      0.166666666667      0.000000000000
      0.416666666667      0.166666666667      0.000000000000
      0.250000000000      0.250000000000      0.000000000000
      0.333333333333      0.250000000000      0.000000000000
      0.333333333333      0.333333333333      0.000000000000
     -0.083333333333      0.000000000000      0.000000000000
     -0.083333333333      0.083333333333      0.000000000000
      0.083333333333     -0.083333333333      0.000000000000
     -0.000000000000     -0.083333333333      0.000000000000
      0.000000000000      0.083333333333      0.000000000000
     -0.166666666667      0.000000000000      0.000000000000
     -0.166666666667      0.166666666667      0.000000000000
      0.166666666667     -0.166666666667      0.000000000000
     -0.000000000000     -0.166666666667      0.000000000000
      0.000000000000      0.166666666667      0.000000000000
     -0.250000000000      0.000000000000      0.000000000000
     -0.250000000000      0.250000000000      0.000000000000
      0.250000000000     -0.250000000000      0.000000000000
     -0.000000000000     -0.250000000000      0.000000000000
      0.000000000000      0.250000000000      0.000000000000
     -0.333333333333      0.000000000000      0.000000000000
     -0.333333333333      0.333333333333      0.000000000000
      0.333333333333     -0.333333333333      0.000000000000
     -0.000000000000     -0.333333333333      0.000000000000
      0.000000000000      0.333333333333      0.000000000000
     -0.416666666667      0.000000000000      0.000000000000
     -0.416666666667      0.416666666667      0.000000000000
      0.416666666667     -0.416666666667      0.000000000000
     -0.000000000000     -0.416666666667      0.000000000000
      0.000000000000      0.416666666667      0.000000000000
     -0.500000000000      0.500000000000      0.000000000000
     -0.000000000000     -0.500000000000      0.000000000000
     -0.083333333333     -0.083333333333      0.000000000000
     -0.166666666667      0.083333333333      0.000000000000
      0.166666666667     -0.083333333333      0.000000000000
      0.083333333333     -0.166666666667      0.000000000000
     -0.083333333333      0.166666666667      0.000000000000
     -0.166666666667     -0.083333333333      0.000000000000
     -0.250000000000      0.166666666667      0.000000000000
      0.250000000000     -0.166666666667      0.000000000000
      0.083333333333     -0.250000000000      0.000000000000
     -0.083333333333      0.250000000000      0.000000000000
      0.166666666667     -0.250000000000      0.000000000000
     -0.166666666667      0.250000000000      0.000000000000
     -0.250000000000      0.083333333333      0.000000000000
      0.250000000000     -0.083333333333      0.000000000000
      0.083333333333      0.166666666667      0.000000000000
     -0.083333333333     -0.166666666667      0.000000000000
     -0.250000000000     -0.083333333333      0.000000000000
     -0.333333333333      0.250000000000      0.000000000000
      0.333333333333     -0.250000000000      0.000000000000
      0.083333333333     -0.333333333333      0.000000000000
     -0.083333333333      0.333333333333      0.000000000000
      0.250000000000     -0.333333333333      0.000000000000
     -0.250000000000      0.333333333333      0.000000000000
     -0.333333333333      0.083333333333      0.000000000000
      0.333333333333     -0.083333333333      0.000000000000
      0.083333333333      0.250000000000      0.000000000000
     -0.083333333333     -0.250000000000      0.000000000000
     -0.333333333333     -0.083333333333      0.000000000000
     -0.416666666667      0.333333333333      0.000000000000
      0.416666666667     -0.333333333333      0.000000000000
      0.083333333333     -0.416666666667      0.000000000000
     -0.083333333333      0.416666666667      0.000000000000
      0.333333333333     -0.416666666667      0.000000000000
     -0.333333333333      0.416666666667      0.000000000000
     -0.416666666667      0.083333333333      0.000000000000
      0.416666666667     -0.083333333333      0.000000000000
      0.083333333333      0.333333333333      0.000000000000
     -0.083333333333     -0.333333333333      0.000000000000
     -0.416666666667     -0.083333333333      0.000000000000
     -0.500000000000      0.416666666667      0.000000000000
      0.500000000000     -0.416666666667      0.000000000000
      0.083333333333     -0.500000000000      0.000000000000
     -0.083333333333      0.500000000000      0.000000000000
      0.416666666667     -0.500000000000      0.000000000000
     -0.416666666667      0.500000000000      0.000000000000
     -0.500000000000      0.083333333333      0.000000000000
      0.500000000000     -0.083333333333      0.000000000000
      0.083333333333      0.416666666667      0.000000000000
     -0.083333333333     -0.416666666667      0.000000000000
     -0.166666666667     -0.166666666667      0.000000000000
     -0.333333333333      0.166666666667      0.000000000000
      0.333333333333     -0.166666666667      0.000000000000
      0.166666666667     -0.333333333333      0.000000000000
     -0.166666666667      0.333333333333      0.000000000000
     -0.250000000000     -0.166666666667      0.000000000000
     -0.416666666667      0.250000000000      0.000000000000
      0.416666666667     -0.250000000000      0.000000000000
      0.166666666667     -0.416666666667      0.000000000000
     -0.166666666667      0.416666666667      0.000000000000
      0.250000000000     -0.416666666667      0.000000000000
     -0.250000000000      0.416666666667      0.000000000000
     -0.416666666667      0.166666666667      0.000000000000
      0.416666666667     -0.166666666667      0.000000000000
      0.166666666667      0.250000000000      0.000000000000
     -0.166666666667     -0.250000000000      0.000000000000
     -0.333333333333     -0.166666666667      0.000000000000
     -0.500000000000      0.333333333333      0.000000000000
      0.500000000000     -0.333333333333      0.000000000000
      0.166666666667     -0.500000000000      0.000000000000
     -0.166666666667      0.500000000000      0.000000000000
      0.333333333333     -0.500000000000      0.000000000000
     -0.333333333333      0.500000000000      0.000000000000
     -0.500000000000      0.166666666667      0.000000000000
      0.500000000000     -0.166666666667      0.000000000000
      0.166666666667      0.333333333333      0.000000000000
     -0.166666666667     -0.333333333333      0.000000000000
     -0.416666666667     -0.166666666667      0.000000000000
     -0.583333333333      0.416666666667      0.000000000000
      0.583333333333     -0.416666666667      0.000000000000
      0.166666666667     -0.583333333333      0.000000000000
     -0.166666666667      0.583333333333      0.000000000000
     -0.250000000000     -0.250000000000      0.000000000000
     -0.500000000000      0.250000000000      0.000000000000
      0.500000000000     -0.250000000000      0.000000000000
      0.250000000000     -0.500000000000      0.000000000000
     -0.250000000000      0.500000000000      0.000000000000
     -0.333333333333     -0.250000000000      0.000000000000
     -0.583333333333      0.333333333333      0.000000000000
      0.583333333333     -0.333333333333      0.000000000000
      0.250000000000     -0.583333333333      0.000000000000
     -0.250000000000      0.583333333333      0.000000000000
      0.333333333333     -0.583333333333      0.000000000000
     -0.333333333333      0.583333333333      0.000000000000
     -0.583333333333      0.250000000000      0.000000000000
      0.583333333333     -0.250000000000      0.000000000000
      0.250000000000      0.333333333333      0.000000000000
     -0.250000000000     -0.333333333333      0.000000000000
     -0.333333333333     -0.333333333333      0.000000000000
end kpoints
# Bandstructure plot 
restart         =  plot
bands_plot      =  true
begin kpoint_path
  G 0.0000   0.0000   0.0000   M 0.5000   0.0000   0.0000
  M 0.5000   0.0000   0.0000   K 0.3333   0.3333   0.0000
  K 0.3333   0.3333   0.0000   G 0.0000   0.0000   0.0000
end kpoint_path
bands_num_points 40
bands_plot_format gnuplot xmgrace
