Begin Projections
  Random
End Projections
 num_wann =   128  ! set to NBANDS by VASP
