MoS2 bulk : expt structure from ICSD 955
   1.00000000000000     
     1.5965000000000000   -2.7652191142837120    0.0000000000000000
     1.5965000000000000    2.7652191142837120    0.0000000000000000
    -0.0000000000000000    0.0000000000000000   13.9808234871445052
   Mo   S 
     2     4
Direct
  0.3333333333333286  0.6666666666666572  0.2500000000000000
  0.6666666666666572  0.3333333333333286  0.7500000000000000
  0.3333333333333286  0.6666666666666572  0.6381533734912958
  0.6666666666666572  0.3333333333333286  0.3618466265087043
  0.6666666666666572  0.3333333333333286  0.1381533634913020
  0.3333333333333286  0.6666666666666572  0.8618466655087039
