Begin Projections
  Random
End Projections

guiding_centres = .true.

num_iter = 400

 num_wann =    65  ! set to NBANDS by VASP

begin unit_cell_cart
     1.5965000    -2.7652191     0.0000000
     1.5965000     2.7652191     0.0000000
     0.0000000     0.0000000    13.9808235
end unit_cell_cart

begin atoms_cart
Mo       1.5965000     0.9217397     3.4952059
Mo       1.5965000    -0.9217397    10.4856176
S        1.5965000     0.9217397     8.9219097
S        1.5965000    -0.9217397     5.0589138
S        1.5965000    -0.9217397     1.9314978
S        1.5965000     0.9217397    12.0493261
end atoms_cart

mp_grid =    12    12     1

begin kpoints
      0.000000000000      0.000000000000      0.000000000000
      0.083333333333      0.000000000000      0.000000000000
      0.166666666667      0.000000000000      0.000000000000
      0.250000000000      0.000000000000      0.000000000000
      0.333333333333      0.000000000000      0.000000000000
      0.416666666667      0.000000000000      0.000000000000
      0.500000000000      0.000000000000      0.000000000000
      0.083333333333      0.083333333333      0.000000000000
      0.166666666667      0.083333333333      0.000000000000
      0.250000000000      0.083333333333      0.000000000000
      0.333333333333      0.083333333333      0.000000000000
      0.416666666667      0.083333333333      0.000000000000
      0.166666666667      0.166666666667      0.000000000000
      0.250000000000      0.166666666667      0.000000000000
      0.333333333333      0.166666666667      0.000000000000
      0.416666666667      0.166666666667      0.000000000000
      0.250000000000      0.250000000000      0.000000000000
      0.333333333333      0.250000000000      0.000000000000
      0.333333333333      0.333333333333      0.000000000000
     -0.083333333333     -0.000000000000      0.000000000000
     -0.083333333333      0.083333333333      0.000000000000
      0.083333333333     -0.083333333333      0.000000000000
      0.000000000000     -0.083333333333      0.000000000000
     -0.000000000000      0.083333333333      0.000000000000
     -0.166666666667      0.000000000000      0.000000000000
     -0.166666666667      0.166666666667      0.000000000000
      0.166666666667     -0.166666666667      0.000000000000
      0.000000000000     -0.166666666667      0.000000000000
      0.000000000000      0.166666666667      0.000000000000
     -0.250000000000     -0.000000000000      0.000000000000
     -0.250000000000      0.250000000000      0.000000000000
      0.250000000000     -0.250000000000      0.000000000000
      0.000000000000     -0.250000000000      0.000000000000
     -0.000000000000      0.250000000000      0.000000000000
     -0.333333333333     -0.000000000000      0.000000000000
     -0.333333333333      0.333333333333      0.000000000000
      0.333333333333     -0.333333333333      0.000000000000
      0.000000000000     -0.333333333333      0.000000000000
     -0.000000000000      0.333333333333      0.000000000000
     -0.416666666667      0.000000000000      0.000000000000
     -0.416666666667      0.416666666667      0.000000000000
      0.416666666667     -0.416666666667      0.000000000000
      0.000000000000     -0.416666666667      0.000000000000
      0.000000000000      0.416666666667      0.000000000000
     -0.500000000000      0.500000000000      0.000000000000
      0.000000000000     -0.500000000000      0.000000000000
     -0.083333333333     -0.083333333333      0.000000000000
     -0.166666666667      0.083333333333      0.000000000000
      0.166666666667     -0.083333333333      0.000000000000
      0.083333333333     -0.166666666667      0.000000000000
     -0.083333333333      0.166666666667      0.000000000000
     -0.166666666667     -0.083333333333      0.000000000000
     -0.250000000000      0.166666666667      0.000000000000
      0.250000000000     -0.166666666667      0.000000000000
      0.083333333333     -0.250000000000      0.000000000000
     -0.083333333333      0.250000000000      0.000000000000
      0.166666666667     -0.250000000000      0.000000000000
     -0.166666666667      0.250000000000      0.000000000000
     -0.250000000000      0.083333333333      0.000000000000
      0.250000000000     -0.083333333333      0.000000000000
      0.083333333333      0.166666666667      0.000000000000
     -0.083333333333     -0.166666666667      0.000000000000
     -0.250000000000     -0.083333333333      0.000000000000
     -0.333333333333      0.250000000000      0.000000000000
      0.333333333333     -0.250000000000      0.000000000000
      0.083333333333     -0.333333333333      0.000000000000
     -0.083333333333      0.333333333333      0.000000000000
      0.250000000000     -0.333333333333      0.000000000000
     -0.250000000000      0.333333333333      0.000000000000
     -0.333333333333      0.083333333333      0.000000000000
      0.333333333333     -0.083333333333      0.000000000000
      0.083333333333      0.250000000000      0.000000000000
     -0.083333333333     -0.250000000000      0.000000000000
     -0.333333333333     -0.083333333333      0.000000000000
     -0.416666666667      0.333333333333      0.000000000000
      0.416666666667     -0.333333333333      0.000000000000
      0.083333333333     -0.416666666667      0.000000000000
     -0.083333333333      0.416666666667      0.000000000000
      0.333333333333     -0.416666666667      0.000000000000
     -0.333333333333      0.416666666667      0.000000000000
     -0.416666666667      0.083333333333      0.000000000000
      0.416666666667     -0.083333333333      0.000000000000
      0.083333333333      0.333333333333      0.000000000000
     -0.083333333333     -0.333333333333      0.000000000000
     -0.416666666667     -0.083333333333      0.000000000000
     -0.500000000000      0.416666666667      0.000000000000
      0.500000000000     -0.416666666667      0.000000000000
      0.083333333333     -0.500000000000      0.000000000000
     -0.083333333333      0.500000000000      0.000000000000
      0.416666666667     -0.500000000000      0.000000000000
     -0.416666666667      0.500000000000      0.000000000000
     -0.500000000000      0.083333333333      0.000000000000
      0.500000000000     -0.083333333333      0.000000000000
      0.083333333333      0.416666666667      0.000000000000
     -0.083333333333     -0.416666666667      0.000000000000
     -0.166666666667     -0.166666666667      0.000000000000
     -0.333333333333      0.166666666667      0.000000000000
      0.333333333333     -0.166666666667      0.000000000000
      0.166666666667     -0.333333333333      0.000000000000
     -0.166666666667      0.333333333333      0.000000000000
     -0.250000000000     -0.166666666667      0.000000000000
     -0.416666666667      0.250000000000      0.000000000000
      0.416666666667     -0.250000000000      0.000000000000
      0.166666666667     -0.416666666667      0.000000000000
     -0.166666666667      0.416666666667      0.000000000000
      0.250000000000     -0.416666666667      0.000000000000
     -0.250000000000      0.416666666667      0.000000000000
     -0.416666666667      0.166666666667      0.000000000000
      0.416666666667     -0.166666666667      0.000000000000
      0.166666666667      0.250000000000      0.000000000000
     -0.166666666667     -0.250000000000      0.000000000000
     -0.333333333333     -0.166666666667      0.000000000000
     -0.500000000000      0.333333333333      0.000000000000
      0.500000000000     -0.333333333333      0.000000000000
      0.166666666667     -0.500000000000      0.000000000000
     -0.166666666667      0.500000000000      0.000000000000
      0.333333333333     -0.500000000000      0.000000000000
     -0.333333333333      0.500000000000      0.000000000000
     -0.500000000000      0.166666666667      0.000000000000
      0.500000000000     -0.166666666667      0.000000000000
      0.166666666667      0.333333333333      0.000000000000
     -0.166666666667     -0.333333333333      0.000000000000
     -0.416666666667     -0.166666666667      0.000000000000
     -0.583333333333      0.416666666667      0.000000000000
      0.583333333333     -0.416666666667      0.000000000000
      0.166666666667     -0.583333333333      0.000000000000
     -0.166666666667      0.583333333333      0.000000000000
     -0.250000000000     -0.250000000000      0.000000000000
     -0.500000000000      0.250000000000      0.000000000000
      0.500000000000     -0.250000000000      0.000000000000
      0.250000000000     -0.500000000000      0.000000000000
     -0.250000000000      0.500000000000      0.000000000000
     -0.333333333333     -0.250000000000      0.000000000000
     -0.583333333333      0.333333333333      0.000000000000
      0.583333333333     -0.333333333333      0.000000000000
      0.250000000000     -0.583333333333      0.000000000000
     -0.250000000000      0.583333333333      0.000000000000
      0.333333333333     -0.583333333333      0.000000000000
     -0.333333333333      0.583333333333      0.000000000000
     -0.583333333333      0.250000000000      0.000000000000
      0.583333333333     -0.250000000000      0.000000000000
      0.250000000000      0.333333333333      0.000000000000
     -0.250000000000     -0.333333333333      0.000000000000
     -0.333333333333     -0.333333333333      0.000000000000
end kpoints
# Bandstructure plot 
restart         =  plot
bands_plot      =  true
begin kpoint_path
  G 0.0000   0.0000   0.0000   M 0.5000   0.0000   0.0000
  M 0.5000   0.0000   0.0000   K 0.3333   0.3333   0.0000
  K 0.3333   0.3333   0.0000   G 0.0000   0.0000   0.0000
end kpoint_path
bands_num_points 40
bands_plot_format gnuplot xmgrace
