MoS2 (bulk, 2 f.u.)                     
   1.00000000000000     
     3.1853171944656129   -0.0000000000000000    0.0000000000000000
    -1.5926585972328064    2.7585649107189369   -0.0000000000000000
    -0.0000000000000000    0.0000000000000000   14.8600350770549383
   Mo   S 
     2     4
Direct
  0.6666669999999968  0.3333330000000032  0.2500000000000000
  0.3333330000000032  0.6666669999999968  0.7500000000000000
  0.3333330000000032  0.6666669999999968  0.1449026491987130
  0.6666669999999968  0.3333330000000032  0.6449026491987130
  0.3333330000000032  0.6666669999999968  0.3550973508012870
  0.6666669999999968  0.3333330000000032  0.8550973508012870
 
  0.00000000E+00  0.00000000E+00  0.00000000E+00
  0.00000000E+00  0.00000000E+00  0.00000000E+00
  0.00000000E+00  0.00000000E+00  0.00000000E+00
  0.00000000E+00  0.00000000E+00  0.00000000E+00
  0.00000000E+00  0.00000000E+00  0.00000000E+00
  0.00000000E+00  0.00000000E+00  0.00000000E+00
