MoS2 (bulk, 2 f.u.)                     
   1.00000000000000     
     3.1830058432748012    0.0000006171661446    0.0000000158858650
    -1.5915023871221641    2.7565640844214858   -0.0000000370969870
     0.0000000788349242   -0.0000001577516323   14.8727092279136333
   Mo   S 
     2     4
Direct
  0.6666665010459812  0.3333335359048721  0.2500001053693353
  0.3333334970591472  0.6666664591355506  0.7499998979244850
  0.3333332276189626  0.6666666936926421  0.1448584995177213
  0.6666666997346163  0.3333332356029057  0.6448586726523838
  0.3333332973871354  0.6666667657942443  0.3551413499604278
  0.6666667771541572  0.3333333098697850  0.8551414745756467
 
  0.00000000E+00  0.00000000E+00  0.00000000E+00
  0.00000000E+00  0.00000000E+00  0.00000000E+00
  0.00000000E+00  0.00000000E+00  0.00000000E+00
  0.00000000E+00  0.00000000E+00  0.00000000E+00
  0.00000000E+00  0.00000000E+00  0.00000000E+00
  0.00000000E+00  0.00000000E+00  0.00000000E+00
