MoS2 (bulk, 2 f.u.)
1.0
   3.190316 0.000000 0.000000
  -1.595158 2.762894 0.000000
   0.000000 0.000000 14.879004
Mo  S
  2  4
Direct
  0.666667 0.333333 0.250000 Mo
  0.333333 0.666667 0.750000 Mo
  0.333333 0.666667 0.144826 S
  0.666667 0.333333 0.644826 S
  0.333333 0.666667 0.355174 S
  0.666667 0.333333 0.855174 S
