MoS2 hexagonal lattice
16
Line-mode
reciprocal
   0.000   0.000   0.000   ! \Gamma
   0.500   0.000   0.000   ! M
 
   0.500   0.000   0.000   ! M
   0.3333  0.3333  0.000   ! K
 
   0.3333  0.3333  0.000   ! K
   0.000   0.000   0.000   ! \Gamma
 
   0.000   0.000   0.000   ! \Gamma
   0.000   0.000   0.500   ! A
 
   0.000   0.000   0.500   ! A
   0.500   0.000   0.500   ! L
 
   0.500   0.000   0.500   ! L
   0.3333  0.3333  0.500   ! H
 
   0.3333  0.3333  0.500   ! H
   0.000   0.000   0.500   ! A
 
   0.500   0.000   0.500   ! L
   0.500   0.000   0.000   ! M
 
   0.3333  0.3333  0.000   ! K
   0.3333  0.3333  0.500   ! H