MoS2 bulk: fully relaxed structure
   1.00000000000000     
     1.5926538312578802   -2.7585573546078765   -0.0000000000000000
     1.5926538312578802    2.7585573546078765    0.0000000000000000
     0.0000000000000000    0.0000000000000000   13.9810314613372757
   Mo   S 
     2     4
Direct
  0.3333333333333286  0.6666666666666572  0.2500000000000000
  0.6666666666666572  0.3333333333333286  0.7500000000000000
  0.3333333333333286  0.6666666666666572  0.6381065120784885
  0.6666666666666572  0.3333333333333286  0.3618934879215116
  0.6666666666666572  0.3333333333333286  0.1381065020784947
  0.3333333333333286  0.6666666666666572  0.8618935269215112
