SYSTEM  = 2H-MoS2
NCORE   = 8

#ENCUT   = 600
ALGO    = Fast
IBRION  = 2
ISIF    = 3
NSW     = 1000
POTIM   = 0.5

EDIFF   = 1.0e-04
ISYM    = 2
LREAL   = .FALSE.

ISMEAR  = 0
SIGMA   = 0.05

PREC    = Accurate
ADDGRID = .TRUE.

NWRITE  = 1
LCHARG  = .FALSE.
LWAVE   = .TRUE.
