MoS2 bulk : expt structure from ICSD 95569, doi.org/10.1103/PhysRevB.65.092105
 1.0
   1.58449995520000  -2.74443442699701   0.00000000000000
   1.58449995520000   2.74443442699701   0.00000000000000
   0.00000000000000   0.00000000000000  12.32400035860000
Mo  S
  2  4
Direct(6) [A2B4]
   0.33333333333333   0.66666666666666   0.25000000000000  Mo
   0.66666666666666   0.33333333333333   0.75000000000000  Mo
   0.33333333333333   0.66666666666666   0.62300003300000  S
   0.66666666666666   0.33333333333333   0.37699996700000  S
   0.66666666666666   0.33333333333333   0.12300002300000  S
   0.33333333333333   0.66666666666666   0.87700000600000  S
