Begin Projections
  Random
End Projections

guiding_centres = .true.

num_iter = 400

 num_wann =    65  ! set to NBANDS by VASP

begin unit_cell_cart
     1.5845000    -2.7444344     0.0000000
     1.5845000     2.7444344     0.0000000
     0.0000000     0.0000000    12.3240004
end unit_cell_cart

begin atoms_cart
Mo       1.5845000     0.9148115     3.0810001
Mo       1.5845000    -0.9148115     9.2430003
S        1.5845000     0.9148115     7.6778526
S        1.5845000    -0.9148115     4.6461477
S        1.5845000    -0.9148115     1.5158523
S        1.5845000     0.9148115    10.8081484
end atoms_cart

mp_grid =    12    12     1

begin kpoints
      0.000000000000      0.000000000000      0.000000000000
      0.083333333333     -0.000000000000      0.000000000000
      0.166666666667     -0.000000000000      0.000000000000
      0.250000000000      0.000000000000      0.000000000000
      0.333333333333      0.000000000000      0.000000000000
      0.416666666667     -0.000000000000      0.000000000000
      0.500000000000      0.000000000000      0.000000000000
      0.083333333333      0.083333333333      0.000000000000
      0.166666666667      0.083333333333      0.000000000000
      0.250000000000      0.083333333333      0.000000000000
      0.333333333333      0.083333333333      0.000000000000
      0.416666666667      0.083333333333      0.000000000000
      0.166666666667      0.166666666667      0.000000000000
      0.250000000000      0.166666666667      0.000000000000
      0.333333333333      0.166666666667      0.000000000000
      0.416666666667      0.166666666667      0.000000000000
      0.250000000000      0.250000000000      0.000000000000
      0.333333333333      0.250000000000      0.000000000000
      0.333333333333      0.333333333333      0.000000000000
     -0.083333333333      0.000000000000      0.000000000000
     -0.083333333333      0.083333333333      0.000000000000
      0.083333333333     -0.083333333333      0.000000000000
     -0.000000000000     -0.083333333333      0.000000000000
      0.000000000000      0.083333333333      0.000000000000
     -0.166666666667      0.000000000000      0.000000000000
     -0.166666666667      0.166666666667      0.000000000000
      0.166666666667     -0.166666666667      0.000000000000
     -0.000000000000     -0.166666666667      0.000000000000
      0.000000000000      0.166666666667      0.000000000000
     -0.250000000000      0.000000000000      0.000000000000
     -0.250000000000      0.250000000000      0.000000000000
      0.250000000000     -0.250000000000      0.000000000000
      0.000000000000     -0.250000000000      0.000000000000
      0.000000000000      0.250000000000      0.000000000000
     -0.333333333333      0.000000000000      0.000000000000
     -0.333333333333      0.333333333333      0.000000000000
      0.333333333333     -0.333333333333      0.000000000000
      0.000000000000     -0.333333333333      0.000000000000
      0.000000000000      0.333333333333      0.000000000000
     -0.416666666667      0.000000000000      0.000000000000
     -0.416666666667      0.416666666667      0.000000000000
      0.416666666667     -0.416666666667      0.000000000000
     -0.000000000000     -0.416666666667      0.000000000000
      0.000000000000      0.416666666667      0.000000000000
     -0.500000000000      0.500000000000      0.000000000000
      0.000000000000     -0.500000000000      0.000000000000
     -0.083333333333     -0.083333333333      0.000000000000
     -0.166666666667      0.083333333333      0.000000000000
      0.166666666667     -0.083333333333      0.000000000000
      0.083333333333     -0.166666666667      0.000000000000
     -0.083333333333      0.166666666667      0.000000000000
     -0.166666666667     -0.083333333333      0.000000000000
     -0.250000000000      0.166666666667      0.000000000000
      0.250000000000     -0.166666666667      0.000000000000
      0.083333333333     -0.250000000000      0.000000000000
     -0.083333333333      0.250000000000      0.000000000000
      0.166666666667     -0.250000000000      0.000000000000
     -0.166666666667      0.250000000000      0.000000000000
     -0.250000000000      0.083333333333      0.000000000000
      0.250000000000     -0.083333333333      0.000000000000
      0.083333333333      0.166666666667      0.000000000000
     -0.083333333333     -0.166666666667      0.000000000000
     -0.250000000000     -0.083333333333      0.000000000000
     -0.333333333333      0.250000000000      0.000000000000
      0.333333333333     -0.250000000000      0.000000000000
      0.083333333333     -0.333333333333      0.000000000000
     -0.083333333333      0.333333333333      0.000000000000
      0.250000000000     -0.333333333333      0.000000000000
     -0.250000000000      0.333333333333      0.000000000000
     -0.333333333333      0.083333333333      0.000000000000
      0.333333333333     -0.083333333333      0.000000000000
      0.083333333333      0.250000000000      0.000000000000
     -0.083333333333     -0.250000000000      0.000000000000
     -0.333333333333     -0.083333333333      0.000000000000
     -0.416666666667      0.333333333333      0.000000000000
      0.416666666667     -0.333333333333      0.000000000000
      0.083333333333     -0.416666666667      0.000000000000
     -0.083333333333      0.416666666667      0.000000000000
      0.333333333333     -0.416666666667      0.000000000000
     -0.333333333333      0.416666666667      0.000000000000
     -0.416666666667      0.083333333333      0.000000000000
      0.416666666667     -0.083333333333      0.000000000000
      0.083333333333      0.333333333333      0.000000000000
     -0.083333333333     -0.333333333333      0.000000000000
     -0.416666666667     -0.083333333333      0.000000000000
     -0.500000000000      0.416666666667      0.000000000000
      0.500000000000     -0.416666666667      0.000000000000
      0.083333333333     -0.500000000000      0.000000000000
     -0.083333333333      0.500000000000      0.000000000000
      0.416666666667     -0.500000000000      0.000000000000
     -0.416666666667      0.500000000000      0.000000000000
     -0.500000000000      0.083333333333      0.000000000000
      0.500000000000     -0.083333333333      0.000000000000
      0.083333333333      0.416666666667      0.000000000000
     -0.083333333333     -0.416666666667      0.000000000000
     -0.166666666667     -0.166666666667      0.000000000000
     -0.333333333333      0.166666666667      0.000000000000
      0.333333333333     -0.166666666667      0.000000000000
      0.166666666667     -0.333333333333      0.000000000000
     -0.166666666667      0.333333333333      0.000000000000
     -0.250000000000     -0.166666666667      0.000000000000
     -0.416666666667      0.250000000000      0.000000000000
      0.416666666667     -0.250000000000      0.000000000000
      0.166666666667     -0.416666666667      0.000000000000
     -0.166666666667      0.416666666667      0.000000000000
      0.250000000000     -0.416666666667      0.000000000000
     -0.250000000000      0.416666666667      0.000000000000
     -0.416666666667      0.166666666667      0.000000000000
      0.416666666667     -0.166666666667      0.000000000000
      0.166666666667      0.250000000000      0.000000000000
     -0.166666666667     -0.250000000000      0.000000000000
     -0.333333333333     -0.166666666667      0.000000000000
     -0.500000000000      0.333333333333      0.000000000000
      0.500000000000     -0.333333333333      0.000000000000
      0.166666666667     -0.500000000000      0.000000000000
     -0.166666666667      0.500000000000      0.000000000000
      0.333333333333     -0.500000000000      0.000000000000
     -0.333333333333      0.500000000000      0.000000000000
     -0.500000000000      0.166666666667      0.000000000000
      0.500000000000     -0.166666666667      0.000000000000
      0.166666666667      0.333333333333      0.000000000000
     -0.166666666667     -0.333333333333      0.000000000000
     -0.416666666667     -0.166666666667      0.000000000000
     -0.583333333333      0.416666666667      0.000000000000
      0.583333333333     -0.416666666667      0.000000000000
      0.166666666667     -0.583333333333      0.000000000000
     -0.166666666667      0.583333333333      0.000000000000
     -0.250000000000     -0.250000000000      0.000000000000
     -0.500000000000      0.250000000000      0.000000000000
      0.500000000000     -0.250000000000      0.000000000000
      0.250000000000     -0.500000000000      0.000000000000
     -0.250000000000      0.500000000000      0.000000000000
     -0.333333333333     -0.250000000000      0.000000000000
     -0.583333333333      0.333333333333      0.000000000000
      0.583333333333     -0.333333333333      0.000000000000
      0.250000000000     -0.583333333333      0.000000000000
     -0.250000000000      0.583333333333      0.000000000000
      0.333333333333     -0.583333333333      0.000000000000
     -0.333333333333      0.583333333333      0.000000000000
     -0.583333333333      0.250000000000      0.000000000000
      0.583333333333     -0.250000000000      0.000000000000
      0.250000000000      0.333333333333      0.000000000000
     -0.250000000000     -0.333333333333      0.000000000000
     -0.333333333333     -0.333333333333      0.000000000000
end kpoints
