&CONTROL
   calculation   = 'vc-relax',
   restart_mode  = 'from_scratch',
   outdir        = 'out',
   pseudo_dir    = '/home/rehnd/.local/espresso-5.2.0/pseudo' ,
   disk_io       = 'default',
   verbosity     = 'default',
   tstress       = .true.,
   tprnfor       = .true.,
   nstep         =  200,
   etot_conv_thr = 1.0E-5,
   forc_conv_thr = 1.0D-4,
/
&SYSTEM
   ibrav        =  0,
   nat          =  6,
   ntyp         =  2, 
   ecutwfc      =  50.0,
   occupations  =  'smearing',
   smearing     =  'fd',
   degauss      =  0.005,
   nspin        =  1,
   lda_plus_u   =  .false., 
/
&ELECTRONS
   conv_thr        =  1.0d-6,
   diagonalization =  'david',
   conv_thr        =  1.0d-8,   ! important
/
&IONS
   ion_dynamics    = 'bfgs'
/
&CELL
   cell_dynamics   = 'bfgs',
   press           = 0.00,  ! desired end pressure
/
ATOMIC_SPECIES
   S      32.06      S.pbe-n-kjpaw_psl.0.1.UPF
   Mo     95.95     Mo.pbe-spn-kjpaw_psl.0.2.UPF
CELL_PARAMETERS (angstrom)
   3.190316   0.000000   0.000000
  -1.595158   2.762894   0.000000
   0.000000   0.000000  14.879004
ATOMIC_POSITIONS (crystal)
Mo  0.666667 0.333333 0.250000
Mo  0.333333 0.666667 0.750000
S   0.333333 0.666667 0.144826
S   0.666667 0.333333 0.644826
S   0.333333 0.666667 0.355174
S   0.666667 0.333333 0.855174
K_POINTS automatic 
   12  12  6  1  1  1
   
