&control
    calculation  = 'bands',
    restart_mode = 'from_scratch',
    prefix       = 'MoS2-2H',
    pseudo_dir   = '/home/rehnd/.local/espresso-5.2.0/pseudo',
    outdir       = '../out',

    wf_collect    = .true.
    verbosity     = 'high'
    forc_conv_thr = 0.01D-3
    etot_conv_thr = 1D-6
/
&system
    ibrav       = 4,
    celldm(1)   = 6.02882349219,
    celldm(3)   = 4.66380258256,
    nat         = 6,
    ntyp        = 2,
    ecutwfc     = 37,
    occupations = 'smearing',
    degauss     = 0.005
    ! vdw_corr    = 'dft-d'
    ! tot_charge  = 0.5
/
&electrons
    conv_thr         = 1.0e-10
    electron_maxstep = 100,
    mixing_mode      = 'plain'
    mixing_beta      = 0.1
    !diagonalization  ='cg'
/
&ions
    ion_dynamics = 'bfgs'
/

ATOMIC_SPECIES
S  32.065  S.pbe-mt_fhi.UPF
Mo 95.94  Mo.pbe-mt_fhi.UPF

ATOMIC_POSITIONS {crystal}
S     0.333333000   0.666667000   0.144245583
S     0.666667000   0.333333000   0.644245583
S     0.333333000   0.666667000   0.355754417
S     0.666667000   0.333333000   0.855754417
Mo    0.666667000   0.333333000   0.250000000
Mo    0.333333000   0.666667000   0.750000000

K_POINTS {crystal}
         113
        0.0000000000    0.0000000000    0.0000000000    1.0
        0.0250000000    0.0000000000    0.0000000000    1.0
        0.0500000000    0.0000000000    0.0000000000    1.0
        0.0750000000    0.0000000000    0.0000000000    1.0
        0.1000000000    0.0000000000    0.0000000000    1.0
        0.1250000000    0.0000000000    0.0000000000    1.0
        0.1500000000    0.0000000000    0.0000000000    1.0
        0.1750000000    0.0000000000    0.0000000000    1.0
        0.2000000000    0.0000000000    0.0000000000    1.0
        0.2250000000    0.0000000000    0.0000000000    1.0
        0.2500000000    0.0000000000    0.0000000000    1.0
        0.2750000000    0.0000000000    0.0000000000    1.0
        0.3000000000    0.0000000000    0.0000000000    1.0
        0.3250000000    0.0000000000    0.0000000000    1.0
        0.3500000000    0.0000000000    0.0000000000    1.0
        0.3750000000    0.0000000000    0.0000000000    1.0
        0.4000000000    0.0000000000    0.0000000000    1.0
        0.4250000000    0.0000000000    0.0000000000    1.0
        0.4500000000    0.0000000000    0.0000000000    1.0
        0.4750000000    0.0000000000    0.0000000000    1.0
        0.5000000000    0.0000000000    0.0000000000    1.0
        0.4848481818    0.0303027273    0.0000000000    1.0
        0.4696963636    0.0606054545    0.0000000000    1.0
        0.4545445455    0.0909081818    0.0000000000    1.0
        0.4393927273    0.1212109091    0.0000000000    1.0
        0.4242409091    0.1515136364    0.0000000000    1.0
        0.4090890909    0.1818163636    0.0000000000    1.0
        0.3939372727    0.2121190909    0.0000000000    1.0
        0.3787854545    0.2424218182    0.0000000000    1.0
        0.3636336364    0.2727245455    0.0000000000    1.0
        0.3484818182    0.3030272727    0.0000000000    1.0
        0.3333300000    0.3333300000    0.0000000000    1.0
        0.3188373913    0.3188373913    0.0000000000    1.0
        0.3043447826    0.3043447826    0.0000000000    1.0
        0.2898521739    0.2898521739    0.0000000000    1.0
        0.2753595652    0.2753595652    0.0000000000    1.0
        0.2608669565    0.2608669565    0.0000000000    1.0
        0.2463743478    0.2463743478    0.0000000000    1.0
        0.2318817391    0.2318817391    0.0000000000    1.0
        0.2173891304    0.2173891304    0.0000000000    1.0
        0.2028965217    0.2028965217    0.0000000000    1.0
        0.1884039130    0.1884039130    0.0000000000    1.0
        0.1739113043    0.1739113043    0.0000000000    1.0
        0.1594186957    0.1594186957    0.0000000000    1.0
        0.1449260870    0.1449260870    0.0000000000    1.0
        0.1304334783    0.1304334783    0.0000000000    1.0
        0.1159408696    0.1159408696    0.0000000000    1.0
        0.1014482609    0.1014482609    0.0000000000    1.0
        0.0869556522    0.0869556522    0.0000000000    1.0
        0.0724630435    0.0724630435    0.0000000000    1.0
        0.0579704348    0.0579704348    0.0000000000    1.0
        0.0434778261    0.0434778261    0.0000000000    1.0
        0.0289852174    0.0289852174    0.0000000000    1.0
        0.0144926087    0.0144926087    0.0000000000    1.0
        0.0000000000    0.0000000000    0.0000000000    1.0
        0.0000000000    0.0000000000    0.1250000000    1.0
        0.0000000000    0.0000000000    0.2500000000    1.0
        0.0000000000    0.0000000000    0.3750000000    1.0
        0.0000000000    0.0000000000    0.5000000000    1.0
        0.0250000000    0.0000000000    0.5000000000    1.0
        0.0500000000    0.0000000000    0.5000000000    1.0
        0.0750000000    0.0000000000    0.5000000000    1.0
        0.1000000000    0.0000000000    0.5000000000    1.0
        0.1250000000    0.0000000000    0.5000000000    1.0
        0.1500000000    0.0000000000    0.5000000000    1.0
        0.1750000000    0.0000000000    0.5000000000    1.0
        0.2000000000    0.0000000000    0.5000000000    1.0
        0.2250000000    0.0000000000    0.5000000000    1.0
        0.2500000000    0.0000000000    0.5000000000    1.0
        0.2750000000    0.0000000000    0.5000000000    1.0
        0.3000000000    0.0000000000    0.5000000000    1.0
        0.3250000000    0.0000000000    0.5000000000    1.0
        0.3500000000    0.0000000000    0.5000000000    1.0
        0.3750000000    0.0000000000    0.5000000000    1.0
        0.4000000000    0.0000000000    0.5000000000    1.0
        0.4250000000    0.0000000000    0.5000000000    1.0
        0.4500000000    0.0000000000    0.5000000000    1.0
        0.4750000000    0.0000000000    0.5000000000    1.0
        0.5000000000    0.0000000000    0.5000000000    1.0
        0.4848481818    0.0303027273    0.5000000000    1.0
        0.4696963636    0.0606054545    0.5000000000    1.0
        0.4545445455    0.0909081818    0.5000000000    1.0
        0.4393927273    0.1212109091    0.5000000000    1.0
        0.4242409091    0.1515136364    0.5000000000    1.0
        0.4090890909    0.1818163636    0.5000000000    1.0
        0.3939372727    0.2121190909    0.5000000000    1.0
        0.3787854545    0.2424218182    0.5000000000    1.0
        0.3636336364    0.2727245455    0.5000000000    1.0
        0.3484818182    0.3030272727    0.5000000000    1.0
        0.3333300000    0.3333300000    0.5000000000    1.0
        0.3188373913    0.3188373913    0.5000000000    1.0
        0.3043447826    0.3043447826    0.5000000000    1.0
        0.2898521739    0.2898521739    0.5000000000    1.0
        0.2753595652    0.2753595652    0.5000000000    1.0
        0.2608669565    0.2608669565    0.5000000000    1.0
        0.2463743478    0.2463743478    0.5000000000    1.0
        0.2318817391    0.2318817391    0.5000000000    1.0
        0.2173891304    0.2173891304    0.5000000000    1.0
        0.2028965217    0.2028965217    0.5000000000    1.0
        0.1884039130    0.1884039130    0.5000000000    1.0
        0.1739113043    0.1739113043    0.5000000000    1.0
        0.1594186957    0.1594186957    0.5000000000    1.0
        0.1449260870    0.1449260870    0.5000000000    1.0
        0.1304334783    0.1304334783    0.5000000000    1.0
        0.1159408696    0.1159408696    0.5000000000    1.0
        0.1014482609    0.1014482609    0.5000000000    1.0
        0.0869556522    0.0869556522    0.5000000000    1.0
        0.0724630435    0.0724630435    0.5000000000    1.0
        0.0579704348    0.0579704348    0.5000000000    1.0
        0.0434778261    0.0434778261    0.5000000000    1.0
        0.0289852174    0.0289852174    0.5000000000    1.0
        0.0144926087    0.0144926087    0.5000000000    1.0
        0.0000000000   -0.0000000000    0.5000000000    1.0
