MoS2 bulk : expt structure from ICSD 955
   1.00000000000000     
     1.5844999552000001   -2.7444344269970098    0.0000000000000000
     1.5844999552000001    2.7444344269970098    0.0000000000000000
     0.0000000000000000    0.0000000000000000   12.3240003585999993
   Mo   S 
     2     4
Direct
  0.3333333333333286  0.6666666666666572  0.2500000000000000
  0.6666666666666572  0.3333333333333286  0.7500000000000000
  0.3333333333333286  0.6666666666666572  0.6230000329999967
  0.6666666666666572  0.3333333333333286  0.3769999670000033
  0.6666666666666572  0.3333333333333286  0.1230000230000030
  0.3333333333333286  0.6666666666666572  0.8770000060000029
 
  0.00000000E+00  0.00000000E+00  0.00000000E+00
  0.00000000E+00  0.00000000E+00  0.00000000E+00
  0.00000000E+00  0.00000000E+00  0.00000000E+00
  0.00000000E+00  0.00000000E+00  0.00000000E+00
  0.00000000E+00  0.00000000E+00  0.00000000E+00
  0.00000000E+00  0.00000000E+00  0.00000000E+00
