&input
fildyn='mos2.dyn',
asr='zero-dim'
/
