MoS2 bulk : expt structure from ICSD 955
   1.00000000000000     
     1.5922108884918662   -2.7577901552322963    0.0000000000000000
     1.5922108884918662    2.7577901552322963    0.0000000000000000
     0.0000000000000000   -0.0000000000000000   13.9932658366924532
   Mo   S 
     2     4
Direct
  0.3333333333333286  0.6666666666666572  0.2500000000000000
  0.6666666666666572  0.3333333333333286  0.7500000000000000
  0.3333333333333286  0.6666666666666572  0.6381934911744155
  0.6666666666666572  0.3333333333333286  0.3618065088255845
  0.6666666666666572  0.3333333333333286  0.1381934811744218
  0.3333333333333286  0.6666666666666572  0.8618065478255842
 
  0.00000000E+00  0.00000000E+00  0.00000000E+00
  0.00000000E+00  0.00000000E+00  0.00000000E+00
  0.00000000E+00  0.00000000E+00  0.00000000E+00
  0.00000000E+00  0.00000000E+00  0.00000000E+00
  0.00000000E+00  0.00000000E+00  0.00000000E+00
  0.00000000E+00  0.00000000E+00  0.00000000E+00
