SYSTEM  = MoTe2

NCORE  = 4
KPAR   = 9

ENCUT   = 400
IBRION  = 2
ISIF    = 3
ISYM    = 2
NSW     = 50

ISMEAR  = 0
SIGMA   = 0.05
#NBANDS  = 65
#NEDOS   = 3000

PREC    = Accurate
EDIFF   = 1.e-5
LREAL   = False
LASPH   = True

#LWAVE      = True
#LWANNIER90 = True
