&BANDS
  prefix  = "MoS2-2H"
  outdir  = "../out"
  filband = "MoS2-2H.bands.dat"
/