SYSTEM   = MoS2
NCORE    = 8

ENCUT    = 600
ALGO     = Fast

IBRION   = 8
ISIF     = 2
NSW      = 1
POTIM    = 0.5

PREC     = Accurate
EDIFF    = 1.0e-05

ISYM     = 0
LREAL    = .FALSE.

ISMEAR   = 0
SIGMA    = 0.05

ADDGRID  = .TRUE.
LCHARG   = .FALSE.
LWAVE    = .FALSE.

NWRITE   = 3
LEPSILON = .TRUE.
