SYSTEM   = MoS2
NCORE    = 8
KPAR     = 4

ENCUT    = 600
ALGO     = Normal
PREC     = Accurate
EDIFF    = 1.0e-8

IBRION   = 7
NSW      = 1

ISMEAR   = 0
SIGMA    = 0.05

LASPH    = True
LREAL    = False
ADDGRID  = True

NWRITE   = 3
LEPSILON = True
