MoS2 (bulk, 2 f.u.)                     
   1.00000000000000     
     3.1830160932085958   -0.0000000000000000   -0.0000000000000000
    -1.5915080466042979    2.7565721000890790    0.0000000000000000
     0.0000000000000000   -0.0000000000000000   14.8727381517570674
   Mo   S 
     2     4
Direct
  0.6666669999999968  0.3333330000000032  0.2500000000000000
  0.3333330000000032  0.6666669999999968  0.7500000000000000
  0.3333330000000032  0.6666669999999968  0.1448592209599354
  0.6666669999999968  0.3333330000000032  0.6448592209599354
  0.3333330000000032  0.6666669999999968  0.3551407790400645
  0.6666669999999968  0.3333330000000032  0.8551407790400646
 
  0.00000000E+00  0.00000000E+00  0.00000000E+00
  0.00000000E+00  0.00000000E+00  0.00000000E+00
  0.00000000E+00  0.00000000E+00  0.00000000E+00
  0.00000000E+00  0.00000000E+00  0.00000000E+00
  0.00000000E+00  0.00000000E+00  0.00000000E+00
  0.00000000E+00  0.00000000E+00  0.00000000E+00
