&control
   calculation   = 'scf',
   title         = 'MoS2 scf',
   prefix        = 'mos2',
   restart_mode  = 'from_scratch',
   outdir        = 'out',
   pseudo_dir    = '/home/rehnd/.local/espresso-5.2.0/pseudo',
   tprnfor        = .true.
/
&system
   ibrav  = 0,
   nat          =  6,
   ntyp         =  2, 
   ecutwfc      =  50.0,
   ecutrho      =  250.0,
   occupations  =  'smearing',
   smearing     =  'fd',
   degauss      =  0.005,
   nspin        =  1,
   lda_plus_u   =  .false., 
/
&ELECTRONS
   conv_thr        =  1.0d-8,
   diagonalization =  'david',
/
ATOMIC_SPECIES
    S     32.06      S.pbe-n-kjpaw_psl.0.1.UPF
   Mo     95.95     Mo.pbe-spn-kjpaw_psl.0.2.UPF
CELL_PARAMETERS (angstrom)

ATOMIC_POSITIONS (crystal)

K_POINTS automatic 
   16 16 8 1 1 1

